(set-info :Origin "This instance was generated by: BanditFuzz-- an RL fuzzer for SMT solvers" )
(set-info :Author "Joe Scott, Fed Mora, Vijay Ganesh" )
(set-info :Contact "Joe Scott, joseph.scott@uwaterloo.ca")
(set-logic QF_BV)
(declare-const bool_0 Bool)
(declare-const bool_1 Bool)
(declare-const bool_2 Bool)
(declare-const bool_3 Bool)
(declare-const bool_4 Bool)
(declare-const bv_0 (_ BitVec 32))
(declare-const bv_1 (_ BitVec 32))
(declare-const bv_2 (_ BitVec 32))
(declare-const bv_3 (_ BitVec 32))
(declare-const bv_4 (_ BitVec 32))
(assert (bvult (bvnor (bvsmod bv_0 #xfb61b06e ) (bvsrem bv_1 #x742cdebe )) (bvmul (bvnand bv_0 bv_2) (bvashr #x8ff8a252  bv_4))))
(assert (bvugt (bvurem (bvor bv_2 #x262bcf34 ) (bvxor #xb142eb24  #x6ef0f87d )) (bvxor (bvmul bv_4 #xd9e6cb96 ) (bvashr bv_0 bv_0))))
(assert (xor (xor (bvule bv_3 #xf0e26c20 ) (and bool_2 true)) (bvsgt (bvlshr bv_1 #xa0840984 ) (bvxnor bv_4 #xbcc5f535 ))))
(assert (bvult (bvshl (bvnor bv_0 bv_4) (bvadd bv_4 bv_3)) (bvlshr (bvand bv_1 bv_3) (bvand bv_0 #xeeba2287 ))))
(assert (bvule (bvshl (bvsmod bv_4 bv_3) (bvadd bv_1 bv_1)) (bvmul (bvnand #xb1e5f6ef  bv_3) (bvxnor #x74f01539  #x436bd3cc ))))
(check-sat)
(exit)
